\ Model knapsack_80_10_5
\ LP format - for model browsing. Use MPS format to capture full model detail.
\ Signature: 0xf944158cd5bd855b
Minimize
  - 358 y[0] - 851 y[1] - 599 y[2] - 975 y[3] - 489 y[4] - 421 y[5]
   - 990 y[6] - 965 y[7] - 387 y[8] - 254 y[9] - 172 y[10] - 266 y[11]
   - 1036 y[12] - 590 y[13] - 814 y[14] - 580 y[15] - 172 y[16] - 187 y[17]
   - 389 y[18] - 811 y[19] - 346 y[20] - 124 y[21] - 934 y[22] - 1012 y[23]
   - 995 y[24] - 704 y[25] - 623 y[26] - 211 y[27] - 251 y[28] - 108 y[29]
   - 159 y[30] - 549 y[31] - 508 y[32] - 603 y[33] - 203 y[34] - 1003 y[35]
   - 944 y[36] - 655 y[37] - 561 y[38] - 314 y[39] - 860 y[40] - 470 y[41]
   - 466 y[42] - 896 y[43] - 1059 y[44] - 665 y[45] - 609 y[46] - 113 y[47]
   - 619 y[48] - 726 y[49] - 659 y[50] - 583 y[51] - 809 y[52] - 381 y[53]
   - 234 y[54] - 192 y[55] - 1044 y[56] - 743 y[57] - 242 y[58] - 793 y[59]
   - 1016 y[60] - 770 y[61] - 310 y[62] - 705 y[63] - 698 y[64] - 217 y[65]
   - 352 y[66] - 272 y[67] - 499 y[68] - 736 y[69] - 244 y[70] - 806 y[71]
   - 675 y[72] - 438 y[73] - 839 y[74] - 1008 y[75] - 171 y[76]
   - 1075 y[77] - 169 y[78] - 404 y[79]
Subject To
 primal_upper: 258 y[0] + 751 y[1] + 499 y[2] + 875 y[3] + 389 y[4]
   + 321 y[5] + 890 y[6] + 865 y[7] + 287 y[8] + 154 y[9] + 72 y[10]
   + 166 y[11] + 936 y[12] + 490 y[13] + 714 y[14] + 480 y[15] + 72 y[16]
   + 87 y[17] + 289 y[18] + 711 y[19] + 246 y[20] + 24 y[21] + 834 y[22]
   + 912 y[23] + 895 y[24] + 604 y[25] + 523 y[26] + 111 y[27] + 151 y[28]
   + 8 y[29] + 59 y[30] + 449 y[31] + 408 y[32] + 503 y[33] + 103 y[34]
   + 903 y[35] + 844 y[36] + 555 y[37] + 461 y[38] + 214 y[39] + 760 y[40]
   + 370 y[41] + 366 y[42] + 796 y[43] + 959 y[44] + 565 y[45] + 509 y[46]
   + 13 y[47] + 519 y[48] + 626 y[49] + 559 y[50] + 483 y[51] + 709 y[52]
   + 281 y[53] + 134 y[54] + 92 y[55] + 944 y[56] + 643 y[57] + 142 y[58]
   + 693 y[59] + 916 y[60] + 670 y[61] + 210 y[62] + 605 y[63] + 598 y[64]
   + 117 y[65] + 252 y[66] + 172 y[67] + 399 y[68] + 636 y[69] + 144 y[70]
   + 706 y[71] + 575 y[72] + 338 y[73] + 739 y[74] + 908 y[75] + 71 y[76]
   + 975 y[77] + 69 y[78] + 304 y[79] + 26 z[0] + 75 z[1] + 50 z[2]
   + 88 z[3] + 39 z[4] + 32 z[5] + 89 z[6] + 86 z[7] + 29 z[8] + 15 z[9]
   + 7 z[10] + 17 z[11] + 94 z[12] + 49 z[13] + 71 z[14] + 48 z[15]
   + 7 z[16] + 9 z[17] + 29 z[18] + 71 z[19] + 25 z[20] + 2 z[21]
   + 83 z[22] + 91 z[23] + 90 z[24] + 60 z[25] + 52 z[26] + 11 z[27]
   + 15 z[28] + z[29] + 6 z[30] + 45 z[31] + 41 z[32] + 50 z[33] + 10 z[34]
   + 90 z[35] + 84 z[36] + 56 z[37] + 46 z[38] + 21 z[39] + 76 z[40]
   + 37 z[41] + 37 z[42] + 80 z[43] + 96 z[44] + 56 z[45] + 51 z[46]
   + z[47] + 52 z[48] + 63 z[49] + 56 z[50] + 48 z[51] + 71 z[52]
   + 28 z[53] + 13 z[54] + 9 z[55] + 94 z[56] + 64 z[57] + 14 z[58]
   + 69 z[59] + 92 z[60] + 67 z[61] + 21 z[62] + 60 z[63] + 60 z[64]
   + 12 z[65] + 25 z[66] + 17 z[67] + 40 z[68] + 64 z[69] + 14 z[70]
   + 71 z[71] + 58 z[72] + 34 z[73] + 74 z[74] + 91 z[75] + 7 z[76]
   + 98 z[77] + 7 z[78] + 30 z[79] <= 6280
 primal_lower0: - 171 y[0] - 13 y[1] - 60 y[2] - 252 y[3] - 180 y[4]
   - 28 y[5] - 144 y[6] - 233 y[7] - 219 y[8] - 154 y[9] - 295 y[10]
   - 34 y[11] - 57 y[12] - 29 y[13] - 212 y[14] - 23 y[15] - 150 y[16]
   - 296 y[17] - 30 y[18] - 206 y[19] - 86 y[20] - 299 y[21] - 41 y[22]
   - 22 y[23] - 219 y[24] - 66 y[25] - 157 y[26] - 77 y[27] - 258 y[28]
   - 112 y[29] - 311 y[30] - 196 y[31] - 128 y[32] - 208 y[33] - 287 y[34]
   - 66 y[35] - 195 y[36] - 138 y[37] - 65 y[38] - 52 y[39] - 159 y[40]
   - 11 y[41] - 134 y[42] - 280 y[43] - 129 y[44] - 79 y[45] - 305 y[46]
   - 246 y[47] - 324 y[48] - 37 y[49] - 52 y[50] - 228 y[51] - 171 y[52]
   - 57 y[53] - 142 y[54] - 227 y[55] - 167 y[56] - 232 y[57] - 95 y[58]
   - 114 y[59] - 100 y[60] - 236 y[61] - 53 y[62] - 74 y[63] - 47 y[64]
   - 63 y[65] - 164 y[66] - 88 y[67] - 79 y[68] - 112 y[69] - 323 y[70]
   - 228 y[71] - 164 y[72] - 222 y[73] - 299 y[74] - 266 y[75] - 312 y[76]
   - 265 y[77] - 97 y[78] - 105 y[79] + 572 u[0] + 41 u[1] + 685 u[2]
   + 509 u[3] + 431 u[4] + 955 u[5] + 420 u[6] + 259 u[7] + 25 u[8]
   + 44 u[9] + 658 u[10] + 824 u[11] + 442 u[12] + 836 u[13] + 684 u[14]
   + 594 u[15] + 850 u[16] + 705 u[17] + 739 u[18] + 665 u[19] + 208 u[20]
   + 474 u[21] + 428 u[22] + 386 u[23] + 385 u[24] + 614 u[25] + 5 u[26]
   + 41 u[27] + 257 u[28] + 626 u[29] + 677 u[30] + 403 u[31] + 922 u[32]
   + 697 u[33] + 721 u[34] + 569 u[35] + 726 u[36] + 733 u[37] + 95 u[38]
   + 936 u[39] + 866 u[40] + 12 u[41] + 696 u[42] + 750 u[43] + 969 u[44]
   + 383 u[45] + 343 u[46] + 839 u[47] + 577 u[48] + 532 u[49] + 737 u[50]
   + 29 u[51] + 183 u[52] + 99 u[53] + 816 u[54] + 726 u[55] + 682 u[56]
   + 685 u[57] + 840 u[58] + 575 u[59] + 454 u[60] + 432 u[61] + 436 u[62]
   + 311 u[63] + 240 u[64] + 895 u[65] + 62 u[66] + 62 u[67] + 961 u[68]
   + 414 u[69] + 466 u[70] + 468 u[71] + 105 u[72] + 292 u[73] + 781 u[74]
   + 150 u[75] + 161 u[76] + 49 u[77] + 151 u[78] + 122 u[79] <= 26128
 primal_lower1: - 117 y[0] - 7 y[1] - 123 y[2] - 81 y[3] - 110 y[4]
   - 87 y[5] - 28 y[6] - 71 y[7] - 152 y[8] - 149 y[9] - 71 y[10]
   - 115 y[11] - 131 y[12] - 139 y[13] - 116 y[14] - 53 y[15] - 32 y[16]
   - 39 y[17] - 32 y[18] - 46 y[19] - 129 y[20] - 16 y[21] - 45 y[22]
   - 93 y[23] - 156 y[24] - 143 y[25] - 138 y[26] - 2 y[27] - 167 y[28]
   - 145 y[29] - 104 y[30] - 46 y[31] - 111 y[32] - 126 y[33] - 7 y[34]
   - 170 y[35] - 169 y[36] - 70 y[37] - 108 y[38] - 58 y[39] - 24 y[40]
   - 165 y[41] - 154 y[42] - 112 y[43] - 133 y[44] - 172 y[45] - 119 y[46]
   - 68 y[47] - 8 y[48] - 67 y[49] - 132 y[50] - 171 y[51] - 150 y[52]
   - 18 y[53] - 46 y[54] - 150 y[55] - 167 y[56] - 79 y[57] - 40 y[58]
   - 127 y[59] - 165 y[60] - 66 y[61] - 29 y[62] - 28 y[63] - 106 y[64]
   - 172 y[65] - 168 y[66] - 45 y[67] - 165 y[68] - 48 y[69] - 53 y[70]
   - 142 y[71] - 168 y[72] - 17 y[73] - 122 y[74] - 145 y[75] - 42 y[76]
   - 4 y[77] - 37 y[78] - 161 y[79] + 770 u[0] + 727 u[1] + 395 u[2]
   + 587 u[3] + 869 u[4] + 577 u[5] + 842 u[6] + 177 u[7] + 543 u[8]
   + 610 u[9] + 600 u[10] + 886 u[11] + 16 u[12] + 330 u[13] + 562 u[14]
   + 784 u[15] + 1000 u[16] + 135 u[17] + 657 u[18] + 511 u[19] + 94 u[20]
   + 440 u[21] + 954 u[22] + 824 u[23] + 151 u[24] + 92 u[25] + 531 u[26]
   + 335 u[27] + 743 u[28] + 656 u[29] + 291 u[30] + 17 u[31] + 688 u[32]
   + 935 u[33] + 783 u[34] + 447 u[35] + 524 u[36] + 491 u[37] + 197 u[38]
   + 998 u[39] + 696 u[40] + 194 u[41] + 110 u[42] + 236 u[43] + 295 u[44]
   + 565 u[45] + 461 u[46] + 285 u[47] + 167 u[48] + 754 u[49] + 487 u[50]
   + 587 u[51] + 869 u[52] + 425 u[53] + 782 u[54] + 492 u[55] + 272 u[56]
   + 779 u[57] + 726 u[58] + 101 u[59] + 740 u[60] + 198 u[61] + 442 u[62]
   + 901 u[63] + 726 u[64] + 181 u[65] + 500 u[66] + 276 u[67] + 783 u[68]
   + 980 u[69] + 648 u[70] + 514 u[71] + 895 u[72] + 714 u[73] + 707 u[74]
   + 172 u[75] + 103 u[76] + 351 u[77] + 485 u[78] + 240 u[79] <= 13869
 primal_lower2: - 78 y[0] - 44 y[1] - 66 y[3] - 17 y[4] - 69 y[5] - 31 y[6]
   - 14 y[7] - 34 y[8] - 8 y[9] - 58 y[10] - 64 y[11] - 15 y[12] - 38 y[13]
   - 64 y[14] - 60 y[15] - 4 y[16] - 63 y[17] - 40 y[18] - 5 y[19]
   - 27 y[20] - 4 y[21] - 19 y[22] - 36 y[23] - 26 y[24] - 28 y[25]
   - 13 y[26] - 70 y[27] - 24 y[28] - 52 y[29] - 59 y[30] - 66 y[31]
   - 27 y[32] - 60 y[33] - 43 y[34] - 50 y[35] - 34 y[36] - 7 y[37]
   - 6 y[38] - 57 y[39] - 54 y[40] - 42 y[41] - 78 y[42] - 18 y[43]
   - 51 y[44] - 39 y[45] - 21 y[46] - 73 y[47] - 72 y[48] - 13 y[49]
   - 8 y[50] - 71 y[51] - 51 y[52] - 18 y[53] - 82 y[54] - 13 y[55]
   - 51 y[56] - 35 y[57] - 23 y[58] - 64 y[59] - 76 y[60] - 49 y[61]
   - 45 y[62] - 22 y[63] - 31 y[64] - 62 y[65] - 17 y[66] - 11 y[67]
   - 26 y[68] - 75 y[69] - 65 y[70] - 81 y[71] - 61 y[72] - 22 y[73]
   - 16 y[74] - 64 y[75] - 9 y[76] - 75 y[77] - 67 y[78] - 69 y[79]
   + 345 u[0] + 434 u[1] + 306 u[2] + 766 u[3] + 684 u[4] + 492 u[5]
   + 441 u[6] + 332 u[7] + 14 u[8] + 973 u[9] + 367 u[10] + 577 u[11]
   + 991 u[12] + 125 u[13] + 977 u[14] + 131 u[15] + 351 u[16] + 930 u[17]
   + 240 u[18] + 642 u[19] + 829 u[20] + 683 u[21] + 609 u[22] + 555 u[23]
   + 126 u[24] + 207 u[25] + 842 u[26] + 306 u[27] + 398 u[28] + 115 u[29]
   + 890 u[30] + 692 u[31] + 551 u[32] + 250 u[33] + 430 u[34] + 114 u[35]
   + 203 u[36] + 294 u[37] + 860 u[38] + 689 u[39] + 111 u[40] + 357 u[41]
   + 669 u[42] + 23 u[43] + 334 u[44] + 784 u[45] + 132 u[46] + 832 u[47]
   + 254 u[48] + 149 u[49] + 830 u[50] + 294 u[51] + 948 u[52] + 868 u[53]
   + 157 u[54] + 399 u[55] + 535 u[56] + 142 u[57] + 293 u[58] + 120 u[59]
   + 243 u[60] + 961 u[61] + 793 u[62] + 648 u[63] + 773 u[64] + 720 u[65]
   + 451 u[66] + 511 u[67] + 542 u[68] + 487 u[69] + 887 u[70] + 181 u[71]
   + 190 u[72] + 957 u[73] + 994 u[74] + 391 u[75] + 806 u[76] + 146 u[77]
   + 124 u[78] + 963 u[79] <= 6626
 primal_lower3: - 45 y[0] - 93 y[1] - 214 y[2] - 71 y[3] - 110 y[4]
   - 61 y[5] - 91 y[6] - 189 y[7] - 190 y[8] - 62 y[9] - 17 y[10]
   - 160 y[11] - 229 y[12] - 121 y[13] - 152 y[14] - 150 y[15] - 15 y[16]
   - 117 y[17] - 126 y[18] - 207 y[19] - 213 y[20] - 27 y[21] - 94 y[22]
   - 15 y[23] - 141 y[24] - 183 y[25] - 113 y[26] - 109 y[27] - 140 y[28]
   - 147 y[29] - 153 y[30] - 240 y[31] - 220 y[32] - 97 y[33] - 77 y[34]
   - 229 y[35] - 107 y[36] - 47 y[37] - 128 y[38] - 204 y[39] - 68 y[40]
   - 196 y[41] - 217 y[42] - 182 y[43] - 104 y[44] - 19 y[45] - 239 y[46]
   - 164 y[47] - 6 y[48] - 213 y[49] - 13 y[50] - 50 y[51] - 117 y[52]
   - 42 y[53] - 48 y[54] - 90 y[55] - 71 y[56] - 161 y[57] - 42 y[58]
   - 82 y[59] - 214 y[60] - 101 y[61] - 35 y[62] - 46 y[63] - 79 y[64]
   - 232 y[65] - 10 y[66] - 10 y[68] - 215 y[69] - 95 y[70] - 114 y[71]
   - 177 y[72] - 148 y[73] - 54 y[74] - 60 y[75] - 234 y[76] - 150 y[77]
   - 144 y[78] - 217 y[79] + 847 u[0] + 840 u[1] + 144 u[2] + 44 u[3]
   + 674 u[4] + 266 u[5] + 863 u[6] + 210 u[7] + 516 u[8] + 731 u[9]
   + 925 u[10] + 927 u[11] + 885 u[12] + 971 u[13] + 191 u[14] + 353 u[15]
   + 237 u[16] + 496 u[17] + 638 u[18] + 408 u[19] + 475 u[20] + 729 u[21]
   + 831 u[22] + 225 u[23] + 532 u[24] + 525 u[25] + 72 u[26] + 16 u[27]
   + 292 u[28] + 369 u[29] + 416 u[30] + 994 u[31] + 717 u[32] + 32 u[33]
   + 716 u[34] + 216 u[35] + 249 u[36] + 964 u[37] + 506 u[38] + 223 u[39]
   + 733 u[40] + 171 u[41] + 883 u[42] + 629 u[43] + 108 u[44] + 510 u[45]
   + 234 u[46] + 326 u[47] + 356 u[48] + 651 u[49] + 540 u[50] + 652 u[51]
   + 2 u[52] + 810 u[53] + 99 u[54] + 109 u[55] + 69 u[56] + 372 u[57]
   + 939 u[58] + 742 u[59] + 417 u[60] + 383 u[61] + 263 u[62] + 278 u[63]
   + 635 u[64] + 854 u[65] + 57 u[66] + 173 u[67] + 316 u[68] + 101 u[69]
   + 605 u[70] + 267 u[71] + 932 u[72] + 811 u[73] + 872 u[74] + 277 u[75]
   + 380 u[76] + 600 u[77] + 242 u[78] + 801 u[79] <= 19232
 primal_lower4: - 163 y[0] - 69 y[2] - 109 y[3] - 91 y[4] - 208 y[5]
   - 110 y[6] - 67 y[7] - 146 y[8] - 31 y[9] - 153 y[10] - 7 y[11]
   - 119 y[12] - 7 y[13] - 169 y[14] - 243 y[15] - 174 y[16] - 66 y[17]
   - 247 y[18] - 13 y[19] - 24 y[20] - 106 y[21] - 104 y[22] - 130 y[23]
   - 28 y[24] - 69 y[25] - 50 y[26] - 9 y[27] - 46 y[28] - 168 y[29]
   - 221 y[30] - 225 y[31] - 76 y[32] - 106 y[33] - 190 y[34] - 140 y[35]
   - 62 y[36] - 73 y[37] - 77 y[38] - 13 y[39] - 21 y[40] - 39 y[41]
   - 247 y[42] - 108 y[43] - 198 y[44] - 30 y[45] - 42 y[46] - 185 y[47]
   - 75 y[48] - 219 y[49] - 128 y[50] - 190 y[51] - 59 y[52] - 239 y[53]
   - 252 y[54] - 136 y[55] - 37 y[56] - 15 y[57] - 49 y[58] - 89 y[59]
   - 56 y[60] - 193 y[61] - 78 y[62] - 186 y[63] - 56 y[64] - 166 y[65]
   - 32 y[66] - 229 y[67] - 148 y[68] - 148 y[69] - 67 y[70] - 177 y[71]
   - 142 y[72] - 250 y[73] - 53 y[74] - 230 y[75] - 87 y[76] - 150 y[77]
   - 3 y[78] - 77 y[79] + 105 u[0] + 338 u[1] + 562 u[2] + 878 u[3]
   + 36 u[4] + 916 u[5] + 689 u[6] + 532 u[7] + 614 u[8] + 789 u[9]
   + 367 u[10] + 521 u[11] + 31 u[12] + 933 u[13] + 505 u[14] + 571 u[15]
   + 183 u[16] + 202 u[17] + 912 u[18] + 210 u[19] + 933 u[20] + 67 u[21]
   + 137 u[22] + 971 u[23] + 630 u[24] + 471 u[25] + 762 u[26] + 954 u[27]
   + 270 u[28] + 827 u[29] + 146 u[30] + 884 u[31] + 175 u[32] + 346 u[33]
   + 206 u[34] + 634 u[35] + 171 u[36] + 966 u[37] + 740 u[38] + 281 u[39]
   + 63 u[40] + 421 u[41] + 493 u[42] + 175 u[43] + 854 u[44] + 968 u[45]
   + 220 u[46] + 928 u[47] + 214 u[48] + 789 u[49] + 222 u[50] + 670 u[51]
   + 444 u[52] + 604 u[53] + 605 u[54] + 183 u[55] + 839 u[56] + 358 u[57]
   + 885 u[58] + 912 u[59] + 275 u[60] + 873 u[61] + 513 u[62] + 104 u[63]
   + 37 u[64] + 784 u[65] + 523 u[66] + 367 u[67] + 894 u[68] + 991 u[69]
   + 871 u[70] + 277 u[71] + 102 u[72] + 317 u[73] + 234 u[74] + 151 u[75]
   + 214 u[76] + 898 u[77] + 772 u[78] + 227 u[79] <= 20368
 primal_lower5: - 113 y[0] - 208 y[1] - 85 y[2] - 14 y[3] - 83 y[4]
   - 9 y[5] - 205 y[6] - 34 y[7] - 15 y[8] - 31 y[9] - 239 y[10]
   - 149 y[11] - 245 y[12] - 237 y[13] - 99 y[14] - 52 y[15] - 229 y[16]
   - 8 y[17] - 143 y[18] - 190 y[19] - 72 y[20] - 168 y[21] - 190 y[22]
   - 209 y[23] - 228 y[24] - 217 y[25] - 78 y[26] - 28 y[27] - 214 y[28]
   - 8 y[29] - 194 y[30] - 109 y[31] - 67 y[32] - 82 y[33] - 232 y[34]
   - 19 y[35] - 244 y[36] - 60 y[37] - 134 y[38] - 216 y[39] - 129 y[40]
   - 137 y[41] - 24 y[42] - 57 y[43] - 222 y[44] - 203 y[45] - 226 y[46]
   - 49 y[47] - 238 y[48] - 172 y[49] - 170 y[50] - 170 y[51] - 8 y[52]
   - 247 y[53] - 143 y[54] - 127 y[55] - 221 y[56] - 36 y[57] - 91 y[58]
   - 212 y[59] - 54 y[60] - 113 y[61] - 135 y[62] - 248 y[63] - 161 y[64]
   - 67 y[65] - 41 y[66] - 241 y[67] - 58 y[68] - 231 y[69] - 57 y[70]
   - 136 y[71] - 63 y[72] - 178 y[73] - 143 y[74] - 194 y[75] - 27 y[76]
   - 124 y[77] - 124 y[78] - 155 y[79] + 536 u[0] + 230 u[1] + 636 u[2]
   + 223 u[3] + 106 u[4] + 464 u[5] + 155 u[6] + 348 u[7] + 204 u[8]
   + 946 u[9] + 818 u[10] + 673 u[11] + 589 u[12] + 530 u[13] + 716 u[14]
   + 332 u[15] + 949 u[16] + 423 u[17] + 114 u[18] + 899 u[19] + 92 u[20]
   + 815 u[21] + 739 u[22] + 891 u[23] + 356 u[24] + 187 u[25] + 940 u[26]
   + 202 u[27] + 941 u[28] + 647 u[29] + 397 u[30] + 492 u[31] + 565 u[32]
   + 430 u[33] + 480 u[34] + 618 u[35] + 921 u[36] + 859 u[37] + 422 u[38]
   + 842 u[39] + 685 u[40] + 474 u[41] + 344 u[42] + 207 u[43] + 68 u[44]
   + 604 u[45] + 407 u[46] + 512 u[47] + 349 u[48] + 49 u[49] + 72 u[50]
   + 271 u[51] + 922 u[52] + 424 u[53] + 112 u[54] + 288 u[55] + 94 u[56]
   + 130 u[57] + 159 u[58] + 129 u[59] + 442 u[60] + 613 u[61] + 412 u[62]
   + 480 u[63] + 468 u[64] + 412 u[65] + 861 u[66] + 431 u[67] + 996 u[68]
   + 140 u[69] + 345 u[70] + 637 u[71] + 492 u[72] + 713 u[73] + 661 u[74]
   + 695 u[75] + 708 u[76] + 671 u[77] + 615 u[78] + 956 u[79] <= 19887
 primal_lower6: - 128 y[0] - 8 y[1] - 189 y[2] - 63 y[3] - 13 y[4]
   - 197 y[5] - 181 y[6] - 125 y[7] - 186 y[8] - 20 y[9] - 176 y[10]
   - 77 y[11] - 136 y[12] - 24 y[13] - 182 y[14] - 198 y[15] - 41 y[16]
   - 25 y[17] - 30 y[18] - 139 y[19] - 121 y[20] - 186 y[21] - 108 y[22]
   - 128 y[23] - 25 y[24] - 102 y[25] - 88 y[26] - 180 y[27] - 49 y[28]
   - 57 y[29] - 31 y[30] - 131 y[31] - 95 y[32] - 99 y[33] - 37 y[34]
   - 54 y[35] - 91 y[36] - 64 y[37] - 18 y[38] - 119 y[39] - 145 y[40]
   - 114 y[41] - 202 y[42] - 27 y[43] - 103 y[44] - 184 y[45] - 29 y[46]
   - 84 y[47] - 39 y[48] - 137 y[49] - 170 y[50] - 34 y[51] - 108 y[52]
   - 157 y[53] - 55 y[54] - 30 y[55] - 114 y[56] - 2 y[57] - 69 y[58]
   - 72 y[59] - 27 y[60] - 165 y[61] - 145 y[62] - 155 y[63] - 194 y[64]
   - 204 y[65] - 60 y[66] - 85 y[67] - 17 y[68] - 52 y[69] - 172 y[70]
   - 14 y[71] - 173 y[72] - 110 y[73] - 148 y[74] - 68 y[75] - 177 y[76]
   - 107 y[77] - 89 y[78] - 23 y[79] + 494 u[0] + 972 u[1] + 458 u[2]
   + 973 u[3] + 560 u[4] + 622 u[5] + 305 u[6] + 706 u[7] + 242 u[8]
   + 344 u[9] + 144 u[10] + 559 u[11] + 763 u[12] + 936 u[13] + 10 u[14]
   + 706 u[15] + 755 u[16] + 117 u[17] + 184 u[18] + 89 u[19] + 474 u[20]
   + 229 u[21] + 633 u[22] + 161 u[23] + 74 u[24] + 297 u[25] + 154 u[26]
   + 368 u[27] + 563 u[28] + 5 u[29] + 755 u[30] + 210 u[31] + 923 u[32]
   + 204 u[33] + 998 u[34] + 272 u[35] + 535 u[36] + 89 u[37] + 4 u[38]
   + 688 u[39] + 379 u[40] + 864 u[41] + 230 u[42] + 853 u[43] + 114 u[44]
   + 874 u[45] + 941 u[46] + 582 u[47] + 355 u[48] + 599 u[49] + 526 u[50]
   + 845 u[51] + 200 u[52] + 246 u[53] + 326 u[54] + 46 u[55] + 204 u[56]
   + 840 u[57] + 85 u[58] + 815 u[59] + 504 u[60] + 99 u[61] + 26 u[62]
   + 966 u[63] + 338 u[64] + 18 u[65] + 363 u[66] + 317 u[67] + 930 u[68]
   + 242 u[69] + 23 u[70] + 155 u[71] + 202 u[72] + 191 u[73] + 387 u[74]
   + 29 u[75] + 34 u[76] + 37 u[77] + 69 u[78] + 410 u[79] <= 16419
 primal_lower7: - 61 y[0] - 60 y[1] - 55 y[2] - 24 y[3] - 31 y[4] - 55 y[5]
   - 54 y[6] - 24 y[7] - 40 y[8] - 44 y[9] - 23 y[10] - 33 y[11] - 43 y[12]
   - 74 y[13] - 7 y[14] - 38 y[15] - 63 y[16] - 63 y[17] - 46 y[18]
   - 51 y[19] - 58 y[20] - 31 y[21] - 37 y[22] - 35 y[23] - 58 y[24]
   - 34 y[25] - 24 y[26] - 39 y[27] - 53 y[28] - 67 y[29] - 67 y[30]
   - 18 y[31] - 67 y[32] - 63 y[33] - 6 y[34] - 63 y[35] - 78 y[36]
   - 40 y[37] - 14 y[38] - 10 y[39] - 37 y[40] - 37 y[41] - 20 y[42]
   - 17 y[43] - 6 y[44] - 21 y[45] - 76 y[46] - 71 y[47] - 5 y[48]
   - 12 y[49] - 46 y[50] - 31 y[51] - 51 y[52] - 56 y[53] - 13 y[54]
   - 21 y[55] - y[56] - 76 y[57] - 24 y[58] - 46 y[59] - 72 y[60]
   - 74 y[61] - 58 y[63] - 14 y[64] - 41 y[65] - 25 y[67] - 53 y[68]
   - 45 y[69] - 25 y[70] - 3 y[71] - 43 y[72] - 58 y[73] - 8 y[74]
   - 66 y[75] - 12 y[76] - 62 y[77] - 44 y[78] - 13 y[79] + 872 u[0]
   + 349 u[1] + 393 u[2] + 897 u[3] + 75 u[4] + 239 u[5] + 432 u[6]
   + 351 u[7] + 85 u[8] + 168 u[9] + 990 u[10] + 276 u[11] + 382 u[12]
   + 736 u[13] + 104 u[14] + 886 u[15] + 214 u[16] + 757 u[17] + 143 u[18]
   + 381 u[19] + 452 u[20] + 86 u[21] + 744 u[22] + 470 u[23] + 773 u[24]
   + 410 u[25] + 233 u[26] + 397 u[27] + 245 u[28] + 134 u[29] + 681 u[30]
   + 831 u[31] + 622 u[32] + 725 u[33] + 229 u[34] + 149 u[35] + 378 u[36]
   + 537 u[37] + 787 u[38] + 460 u[39] + 366 u[40] + 200 u[41] + 948 u[42]
   + 258 u[43] + 989 u[44] + 699 u[45] + 539 u[46] + 787 u[47] + 845 u[48]
   + 600 u[49] + 181 u[50] + 377 u[51] + 659 u[52] + 167 u[53] + 740 u[54]
   + 994 u[55] + 150 u[56] + 809 u[57] + 68 u[58] + 387 u[59] + 402 u[60]
   + 796 u[61] + 808 u[62] + 899 u[63] + 324 u[64] + 811 u[65] + 578 u[66]
   + 194 u[67] + 29 u[68] + 314 u[69] + 174 u[70] + 944 u[71] + 517 u[72]
   + 344 u[73] + 329 u[74] + 426 u[75] + 21 u[76] + 245 u[77] + 123 u[78]
   + 734 u[79] <= 6308
 primal_lower8: - 9 y[0] - 11 y[1] - 4 y[2] - 10 y[3] - 6 y[4] - 10 y[5]
   - 11 y[6] - 3 y[7] - 2 y[8] - 6 y[9] - 3 y[10] - 7 y[11] - 5 y[12]
   - 7 y[13] - 9 y[14] - 6 y[15] - y[16] - 5 y[17] - 5 y[18] - 2 y[19]
   - 7 y[20] - y[21] - 4 y[22] - 3 y[23] - 5 y[24] - 5 y[25] - 6 y[26]
   - 6 y[27] - 2 y[28] - y[29] - 4 y[30] - y[31] - 3 y[32] - 6 y[33]
   - 3 y[34] - 7 y[36] - 9 y[37] - 8 y[38] - 10 y[39] - 11 y[40] - 6 y[41]
   - 7 y[42] - 8 y[43] - 2 y[44] - 4 y[45] - 5 y[46] - 3 y[47] - 5 y[48]
   - y[49] - 12 y[50] - 2 y[51] - 12 y[52] - 8 y[53] - 9 y[54] - 8 y[55]
   - 5 y[56] - 6 y[57] - 2 y[58] - 11 y[59] - 8 y[60] - 7 y[61] - y[62]
   - 3 y[64] - 6 y[65] - y[66] - 5 y[67] - 3 y[68] - 11 y[69] - 6 y[70]
   - 8 y[71] - 5 y[72] - 8 y[73] - 10 y[74] - 6 y[75] - 4 y[76] - 7 y[77]
   - 11 y[78] - 2 y[79] + 359 u[0] + 656 u[1] + 224 u[2] + 388 u[3]
   + 466 u[4] + 754 u[5] + 383 u[6] + 618 u[7] + 612 u[8] + 827 u[9]
   + 149 u[10] + 175 u[11] + 605 u[12] + 411 u[13] + 231 u[14] + 993 u[15]
   + 949 u[16] + 24 u[17] + 942 u[18] + 640 u[19] + 987 u[20] + 825 u[21]
   + 343 u[22] + 529 u[23] + 660 u[24] + 293 u[25] + 128 u[26] + 360 u[27]
   + 708 u[28] + 257 u[29] + 112 u[30] + 426 u[31] + 517 u[32] + 304 u[33]
   + 724 u[34] + 208 u[35] + 977 u[36] + 404 u[37] + 514 u[38] + 31 u[39]
   + 93 u[40] + 915 u[41] + 339 u[42] + 69 u[43] + 308 u[44] + 742 u[45]
   + 226 u[46] + 214 u[47] + 860 u[48] + 99 u[49] + 60 u[50] + 132 u[51]
   + 226 u[52] + 570 u[53] + 643 u[54] + 685 u[55] + 365 u[56] + 956 u[57]
   + 563 u[58] + 134 u[59] + 465 u[60] + 447 u[61] + 679 u[62] + 518 u[63]
   + 731 u[64] + 654 u[65] + 57 u[66] + 245 u[67] + 332 u[68] + 557 u[69]
   + 965 u[70] + 107 u[71] + 28 u[72] + 699 u[73] + 800 u[74] + 13 u[75]
   + 116 u[76] + 1000 u[77] + 146 u[78] + 961 u[79] <= 1000
 primal_lower9: - 86 y[0] - 72 y[1] - 180 y[2] - 156 y[3] - 49 y[4]
   - 76 y[5] - 69 y[6] - 21 y[7] - 179 y[8] - 29 y[9] - 224 y[10]
   - 68 y[11] - 238 y[12] - 193 y[13] - 96 y[14] - 52 y[15] - 2 y[16]
   - 9 y[17] - 85 y[18] - 70 y[19] - 82 y[20] - 209 y[21] - 127 y[22]
   - 140 y[23] - 50 y[24] - 51 y[25] - 211 y[26] - 136 y[27] - 46 y[28]
   - 142 y[29] - 11 y[30] - 27 y[31] - 134 y[32] - 10 y[33] - 90 y[34]
   - 197 y[35] - 239 y[36] - 217 y[37] - 228 y[38] - 16 y[39] - 180 y[40]
   - 242 y[41] - 38 y[42] - 147 y[43] - 66 y[44] - 167 y[45] - 134 y[46]
   - 20 y[47] - 88 y[48] - 126 y[49] - 116 y[50] - 224 y[51] - 198 y[52]
   - 18 y[53] - 122 y[54] - 223 y[55] - 6 y[56] - 50 y[57] - 103 y[58]
   - 217 y[59] - 78 y[60] - 66 y[61] - 92 y[62] - 229 y[63] - 206 y[64]
   - 213 y[65] - 237 y[66] - 74 y[67] - 34 y[68] - 20 y[69] - 141 y[70]
   - 158 y[71] - 116 y[72] - 170 y[73] - 151 y[74] - 7 y[75] - 106 y[76]
   - 119 y[77] - 82 y[78] - 200 y[79] + 790 u[0] + 283 u[1] + 55 u[2]
   + 7 u[3] + 737 u[4] + 829 u[5] + 126 u[6] + 277 u[7] + 283 u[8]
   + 414 u[9] + 380 u[10] + 106 u[11] + 492 u[12] + 126 u[13] + 926 u[14]
   + 92 u[15] + 788 u[16] + 667 u[17] + 101 u[18] + 587 u[19] + 386 u[20]
   + 948 u[21] + 342 u[22] + 980 u[23] + 507 u[24] + 192 u[25] + 487 u[26]
   + 195 u[27] + 355 u[28] + 988 u[29] + 191 u[30] + 61 u[31] + 932 u[32]
   + 187 u[33] + 547 u[34] + 795 u[35] + 96 u[36] + 671 u[37] + 153 u[38]
   + 850 u[39] + 852 u[40] + 398 u[41] + 106 u[42] + 584 u[43] + 587 u[44]
   + 265 u[45] + 569 u[46] + 937 u[47] + 803 u[48] + 494 u[49] + 43 u[50]
   + 263 u[51] + 657 u[52] + 653 u[53] + 898 u[54] + 752 u[55] + 660 u[56]
   + 383 u[57] + 794 u[58] + 321 u[59] + 520 u[60] + 762 u[61] + 702 u[62]
   + 609 u[63] + 826 u[64] + 65 u[65] + 496 u[66] + 896 u[67] + 123 u[68]
   + 488 u[69] + 812 u[70] + 414 u[71] + 715 u[72] + 430 u[73] + 455 u[74]
   + 8 u[75] + 163 u[76] + 635 u[77] + 361 u[78] + 676 u[79] <= 19552
 mccormick1[0]: - u[0] + z[0] <= 0
 mccormick1[1]: - u[1] + z[1] <= 0
 mccormick1[2]: - u[2] + z[2] <= 0
 mccormick1[3]: - u[3] + z[3] <= 0
 mccormick1[4]: - u[4] + z[4] <= 0
 mccormick1[5]: - u[5] + z[5] <= 0
 mccormick1[6]: - u[6] + z[6] <= 0
 mccormick1[7]: - u[7] + z[7] <= 0
 mccormick1[8]: - u[8] + z[8] <= 0
 mccormick1[9]: - u[9] + z[9] <= 0
 mccormick1[10]: - u[10] + z[10] <= 0
 mccormick1[11]: - u[11] + z[11] <= 0
 mccormick1[12]: - u[12] + z[12] <= 0
 mccormick1[13]: - u[13] + z[13] <= 0
 mccormick1[14]: - u[14] + z[14] <= 0
 mccormick1[15]: - u[15] + z[15] <= 0
 mccormick1[16]: - u[16] + z[16] <= 0
 mccormick1[17]: - u[17] + z[17] <= 0
 mccormick1[18]: - u[18] + z[18] <= 0
 mccormick1[19]: - u[19] + z[19] <= 0
 mccormick1[20]: - u[20] + z[20] <= 0
 mccormick1[21]: - u[21] + z[21] <= 0
 mccormick1[22]: - u[22] + z[22] <= 0
 mccormick1[23]: - u[23] + z[23] <= 0
 mccormick1[24]: - u[24] + z[24] <= 0
 mccormick1[25]: - u[25] + z[25] <= 0
 mccormick1[26]: - u[26] + z[26] <= 0
 mccormick1[27]: - u[27] + z[27] <= 0
 mccormick1[28]: - u[28] + z[28] <= 0
 mccormick1[29]: - u[29] + z[29] <= 0
 mccormick1[30]: - u[30] + z[30] <= 0
 mccormick1[31]: - u[31] + z[31] <= 0
 mccormick1[32]: - u[32] + z[32] <= 0
 mccormick1[33]: - u[33] + z[33] <= 0
 mccormick1[34]: - u[34] + z[34] <= 0
 mccormick1[35]: - u[35] + z[35] <= 0
 mccormick1[36]: - u[36] + z[36] <= 0
 mccormick1[37]: - u[37] + z[37] <= 0
 mccormick1[38]: - u[38] + z[38] <= 0
 mccormick1[39]: - u[39] + z[39] <= 0
 mccormick1[40]: - u[40] + z[40] <= 0
 mccormick1[41]: - u[41] + z[41] <= 0
 mccormick1[42]: - u[42] + z[42] <= 0
 mccormick1[43]: - u[43] + z[43] <= 0
 mccormick1[44]: - u[44] + z[44] <= 0
 mccormick1[45]: - u[45] + z[45] <= 0
 mccormick1[46]: - u[46] + z[46] <= 0
 mccormick1[47]: - u[47] + z[47] <= 0
 mccormick1[48]: - u[48] + z[48] <= 0
 mccormick1[49]: - u[49] + z[49] <= 0
 mccormick1[50]: - u[50] + z[50] <= 0
 mccormick1[51]: - u[51] + z[51] <= 0
 mccormick1[52]: - u[52] + z[52] <= 0
 mccormick1[53]: - u[53] + z[53] <= 0
 mccormick1[54]: - u[54] + z[54] <= 0
 mccormick1[55]: - u[55] + z[55] <= 0
 mccormick1[56]: - u[56] + z[56] <= 0
 mccormick1[57]: - u[57] + z[57] <= 0
 mccormick1[58]: - u[58] + z[58] <= 0
 mccormick1[59]: - u[59] + z[59] <= 0
 mccormick1[60]: - u[60] + z[60] <= 0
 mccormick1[61]: - u[61] + z[61] <= 0
 mccormick1[62]: - u[62] + z[62] <= 0
 mccormick1[63]: - u[63] + z[63] <= 0
 mccormick1[64]: - u[64] + z[64] <= 0
 mccormick1[65]: - u[65] + z[65] <= 0
 mccormick1[66]: - u[66] + z[66] <= 0
 mccormick1[67]: - u[67] + z[67] <= 0
 mccormick1[68]: - u[68] + z[68] <= 0
 mccormick1[69]: - u[69] + z[69] <= 0
 mccormick1[70]: - u[70] + z[70] <= 0
 mccormick1[71]: - u[71] + z[71] <= 0
 mccormick1[72]: - u[72] + z[72] <= 0
 mccormick1[73]: - u[73] + z[73] <= 0
 mccormick1[74]: - u[74] + z[74] <= 0
 mccormick1[75]: - u[75] + z[75] <= 0
 mccormick1[76]: - u[76] + z[76] <= 0
 mccormick1[77]: - u[77] + z[77] <= 0
 mccormick1[78]: - u[78] + z[78] <= 0
 mccormick1[79]: - u[79] + z[79] <= 0
 mccormick2[0]: - y[0] + z[0] <= 0
 mccormick2[1]: - y[1] + z[1] <= 0
 mccormick2[2]: - y[2] + z[2] <= 0
 mccormick2[3]: - y[3] + z[3] <= 0
 mccormick2[4]: - y[4] + z[4] <= 0
 mccormick2[5]: - y[5] + z[5] <= 0
 mccormick2[6]: - y[6] + z[6] <= 0
 mccormick2[7]: - y[7] + z[7] <= 0
 mccormick2[8]: - y[8] + z[8] <= 0
 mccormick2[9]: - y[9] + z[9] <= 0
 mccormick2[10]: - y[10] + z[10] <= 0
 mccormick2[11]: - y[11] + z[11] <= 0
 mccormick2[12]: - y[12] + z[12] <= 0
 mccormick2[13]: - y[13] + z[13] <= 0
 mccormick2[14]: - y[14] + z[14] <= 0
 mccormick2[15]: - y[15] + z[15] <= 0
 mccormick2[16]: - y[16] + z[16] <= 0
 mccormick2[17]: - y[17] + z[17] <= 0
 mccormick2[18]: - y[18] + z[18] <= 0
 mccormick2[19]: - y[19] + z[19] <= 0
 mccormick2[20]: - y[20] + z[20] <= 0
 mccormick2[21]: - y[21] + z[21] <= 0
 mccormick2[22]: - y[22] + z[22] <= 0
 mccormick2[23]: - y[23] + z[23] <= 0
 mccormick2[24]: - y[24] + z[24] <= 0
 mccormick2[25]: - y[25] + z[25] <= 0
 mccormick2[26]: - y[26] + z[26] <= 0
 mccormick2[27]: - y[27] + z[27] <= 0
 mccormick2[28]: - y[28] + z[28] <= 0
 mccormick2[29]: - y[29] + z[29] <= 0
 mccormick2[30]: - y[30] + z[30] <= 0
 mccormick2[31]: - y[31] + z[31] <= 0
 mccormick2[32]: - y[32] + z[32] <= 0
 mccormick2[33]: - y[33] + z[33] <= 0
 mccormick2[34]: - y[34] + z[34] <= 0
 mccormick2[35]: - y[35] + z[35] <= 0
 mccormick2[36]: - y[36] + z[36] <= 0
 mccormick2[37]: - y[37] + z[37] <= 0
 mccormick2[38]: - y[38] + z[38] <= 0
 mccormick2[39]: - y[39] + z[39] <= 0
 mccormick2[40]: - y[40] + z[40] <= 0
 mccormick2[41]: - y[41] + z[41] <= 0
 mccormick2[42]: - y[42] + z[42] <= 0
 mccormick2[43]: - y[43] + z[43] <= 0
 mccormick2[44]: - y[44] + z[44] <= 0
 mccormick2[45]: - y[45] + z[45] <= 0
 mccormick2[46]: - y[46] + z[46] <= 0
 mccormick2[47]: - y[47] + z[47] <= 0
 mccormick2[48]: - y[48] + z[48] <= 0
 mccormick2[49]: - y[49] + z[49] <= 0
 mccormick2[50]: - y[50] + z[50] <= 0
 mccormick2[51]: - y[51] + z[51] <= 0
 mccormick2[52]: - y[52] + z[52] <= 0
 mccormick2[53]: - y[53] + z[53] <= 0
 mccormick2[54]: - y[54] + z[54] <= 0
 mccormick2[55]: - y[55] + z[55] <= 0
 mccormick2[56]: - y[56] + z[56] <= 0
 mccormick2[57]: - y[57] + z[57] <= 0
 mccormick2[58]: - y[58] + z[58] <= 0
 mccormick2[59]: - y[59] + z[59] <= 0
 mccormick2[60]: - y[60] + z[60] <= 0
 mccormick2[61]: - y[61] + z[61] <= 0
 mccormick2[62]: - y[62] + z[62] <= 0
 mccormick2[63]: - y[63] + z[63] <= 0
 mccormick2[64]: - y[64] + z[64] <= 0
 mccormick2[65]: - y[65] + z[65] <= 0
 mccormick2[66]: - y[66] + z[66] <= 0
 mccormick2[67]: - y[67] + z[67] <= 0
 mccormick2[68]: - y[68] + z[68] <= 0
 mccormick2[69]: - y[69] + z[69] <= 0
 mccormick2[70]: - y[70] + z[70] <= 0
 mccormick2[71]: - y[71] + z[71] <= 0
 mccormick2[72]: - y[72] + z[72] <= 0
 mccormick2[73]: - y[73] + z[73] <= 0
 mccormick2[74]: - y[74] + z[74] <= 0
 mccormick2[75]: - y[75] + z[75] <= 0
 mccormick2[76]: - y[76] + z[76] <= 0
 mccormick2[77]: - y[77] + z[77] <= 0
 mccormick2[78]: - y[78] + z[78] <= 0
 mccormick2[79]: - y[79] + z[79] <= 0
 mccormick3[0]: y[0] + u[0] - z[0] <= 1
 mccormick3[1]: y[1] + u[1] - z[1] <= 1
 mccormick3[2]: y[2] + u[2] - z[2] <= 1
 mccormick3[3]: y[3] + u[3] - z[3] <= 1
 mccormick3[4]: y[4] + u[4] - z[4] <= 1
 mccormick3[5]: y[5] + u[5] - z[5] <= 1
 mccormick3[6]: y[6] + u[6] - z[6] <= 1
 mccormick3[7]: y[7] + u[7] - z[7] <= 1
 mccormick3[8]: y[8] + u[8] - z[8] <= 1
 mccormick3[9]: y[9] + u[9] - z[9] <= 1
 mccormick3[10]: y[10] + u[10] - z[10] <= 1
 mccormick3[11]: y[11] + u[11] - z[11] <= 1
 mccormick3[12]: y[12] + u[12] - z[12] <= 1
 mccormick3[13]: y[13] + u[13] - z[13] <= 1
 mccormick3[14]: y[14] + u[14] - z[14] <= 1
 mccormick3[15]: y[15] + u[15] - z[15] <= 1
 mccormick3[16]: y[16] + u[16] - z[16] <= 1
 mccormick3[17]: y[17] + u[17] - z[17] <= 1
 mccormick3[18]: y[18] + u[18] - z[18] <= 1
 mccormick3[19]: y[19] + u[19] - z[19] <= 1
 mccormick3[20]: y[20] + u[20] - z[20] <= 1
 mccormick3[21]: y[21] + u[21] - z[21] <= 1
 mccormick3[22]: y[22] + u[22] - z[22] <= 1
 mccormick3[23]: y[23] + u[23] - z[23] <= 1
 mccormick3[24]: y[24] + u[24] - z[24] <= 1
 mccormick3[25]: y[25] + u[25] - z[25] <= 1
 mccormick3[26]: y[26] + u[26] - z[26] <= 1
 mccormick3[27]: y[27] + u[27] - z[27] <= 1
 mccormick3[28]: y[28] + u[28] - z[28] <= 1
 mccormick3[29]: y[29] + u[29] - z[29] <= 1
 mccormick3[30]: y[30] + u[30] - z[30] <= 1
 mccormick3[31]: y[31] + u[31] - z[31] <= 1
 mccormick3[32]: y[32] + u[32] - z[32] <= 1
 mccormick3[33]: y[33] + u[33] - z[33] <= 1
 mccormick3[34]: y[34] + u[34] - z[34] <= 1
 mccormick3[35]: y[35] + u[35] - z[35] <= 1
 mccormick3[36]: y[36] + u[36] - z[36] <= 1
 mccormick3[37]: y[37] + u[37] - z[37] <= 1
 mccormick3[38]: y[38] + u[38] - z[38] <= 1
 mccormick3[39]: y[39] + u[39] - z[39] <= 1
 mccormick3[40]: y[40] + u[40] - z[40] <= 1
 mccormick3[41]: y[41] + u[41] - z[41] <= 1
 mccormick3[42]: y[42] + u[42] - z[42] <= 1
 mccormick3[43]: y[43] + u[43] - z[43] <= 1
 mccormick3[44]: y[44] + u[44] - z[44] <= 1
 mccormick3[45]: y[45] + u[45] - z[45] <= 1
 mccormick3[46]: y[46] + u[46] - z[46] <= 1
 mccormick3[47]: y[47] + u[47] - z[47] <= 1
 mccormick3[48]: y[48] + u[48] - z[48] <= 1
 mccormick3[49]: y[49] + u[49] - z[49] <= 1
 mccormick3[50]: y[50] + u[50] - z[50] <= 1
 mccormick3[51]: y[51] + u[51] - z[51] <= 1
 mccormick3[52]: y[52] + u[52] - z[52] <= 1
 mccormick3[53]: y[53] + u[53] - z[53] <= 1
 mccormick3[54]: y[54] + u[54] - z[54] <= 1
 mccormick3[55]: y[55] + u[55] - z[55] <= 1
 mccormick3[56]: y[56] + u[56] - z[56] <= 1
 mccormick3[57]: y[57] + u[57] - z[57] <= 1
 mccormick3[58]: y[58] + u[58] - z[58] <= 1
 mccormick3[59]: y[59] + u[59] - z[59] <= 1
 mccormick3[60]: y[60] + u[60] - z[60] <= 1
 mccormick3[61]: y[61] + u[61] - z[61] <= 1
 mccormick3[62]: y[62] + u[62] - z[62] <= 1
 mccormick3[63]: y[63] + u[63] - z[63] <= 1
 mccormick3[64]: y[64] + u[64] - z[64] <= 1
 mccormick3[65]: y[65] + u[65] - z[65] <= 1
 mccormick3[66]: y[66] + u[66] - z[66] <= 1
 mccormick3[67]: y[67] + u[67] - z[67] <= 1
 mccormick3[68]: y[68] + u[68] - z[68] <= 1
 mccormick3[69]: y[69] + u[69] - z[69] <= 1
 mccormick3[70]: y[70] + u[70] - z[70] <= 1
 mccormick3[71]: y[71] + u[71] - z[71] <= 1
 mccormick3[72]: y[72] + u[72] - z[72] <= 1
 mccormick3[73]: y[73] + u[73] - z[73] <= 1
 mccormick3[74]: y[74] + u[74] - z[74] <= 1
 mccormick3[75]: y[75] + u[75] - z[75] <= 1
 mccormick3[76]: y[76] + u[76] - z[76] <= 1
 mccormick3[77]: y[77] + u[77] - z[77] <= 1
 mccormick3[78]: y[78] + u[78] - z[78] <= 1
 mccormick3[79]: y[79] + u[79] - z[79] <= 1
Bounds
Binaries
 y[0] y[1] y[2] y[3] y[4] y[5] y[6] y[7] y[8] y[9] y[10] y[11] y[12] y[13]
 y[14] y[15] y[16] y[17] y[18] y[19] y[20] y[21] y[22] y[23] y[24] y[25]
 y[26] y[27] y[28] y[29] y[30] y[31] y[32] y[33] y[34] y[35] y[36] y[37]
 y[38] y[39] y[40] y[41] y[42] y[43] y[44] y[45] y[46] y[47] y[48] y[49]
 y[50] y[51] y[52] y[53] y[54] y[55] y[56] y[57] y[58] y[59] y[60] y[61]
 y[62] y[63] y[64] y[65] y[66] y[67] y[68] y[69] y[70] y[71] y[72] y[73]
 y[74] y[75] y[76] y[77] y[78] y[79] u[0] u[1] u[2] u[3] u[4] u[5] u[6]
 u[7] u[8] u[9] u[10] u[11] u[12] u[13] u[14] u[15] u[16] u[17] u[18] u[19]
 u[20] u[21] u[22] u[23] u[24] u[25] u[26] u[27] u[28] u[29] u[30] u[31]
 u[32] u[33] u[34] u[35] u[36] u[37] u[38] u[39] u[40] u[41] u[42] u[43]
 u[44] u[45] u[46] u[47] u[48] u[49] u[50] u[51] u[52] u[53] u[54] u[55]
 u[56] u[57] u[58] u[59] u[60] u[61] u[62] u[63] u[64] u[65] u[66] u[67]
 u[68] u[69] u[70] u[71] u[72] u[73] u[74] u[75] u[76] u[77] u[78] u[79]
 z[0] z[1] z[2] z[3] z[4] z[5] z[6] z[7] z[8] z[9] z[10] z[11] z[12] z[13]
 z[14] z[15] z[16] z[17] z[18] z[19] z[20] z[21] z[22] z[23] z[24] z[25]
 z[26] z[27] z[28] z[29] z[30] z[31] z[32] z[33] z[34] z[35] z[36] z[37]
 z[38] z[39] z[40] z[41] z[42] z[43] z[44] z[45] z[46] z[47] z[48] z[49]
 z[50] z[51] z[52] z[53] z[54] z[55] z[56] z[57] z[58] z[59] z[60] z[61]
 z[62] z[63] z[64] z[65] z[66] z[67] z[68] z[69] z[70] z[71] z[72] z[73]
 z[74] z[75] z[76] z[77] z[78] z[79]
End
